
Route #1: 52 43 30 38 26 42 45 39 41 29 50 7 
Route #2: 48 20 57 11 58 22 
Route #3: 46 21 61 24 
Route #4: 36 28 51 47 44 32 31 34 
Route #5: 17 56 40 25 53 49 19 
Route #6: 23 54 16 60 37 62 
Route #7: 4 59 5 18 55 33 
Route #8: 27 35 8 6 12 
Route #9: 14 1 3 10 15 
Route #10: 13 2 9 
cost 2029.94
total time is 7.2